     Program PWSCF v.6.4.1 starts on 13Dec2021 at 13:37: 9

     R & G space division:  proc/nbgrp/npool/nimage =       8
     Reading input from 01_rutile_scf.in

     Current dimensions of program PWSCF are:
     Max number of different atomic species (ntypx) = 10
     Max number of k-points (npk) =  40000
     Max angular momentum in pseudopotentials (lmaxx) =  3

     IMPORTANT: XC functional enforced from input :
     Exchange-correlation      = B3LYP ( 7 12  9  7 0 0)
     EXX-fraction              =        0.20
     Any further DFT definition will be discarded
     Please, verify this is what you really want

     EXX: setup a grid of 12 q-points centered on each k-point
     (k+q)-points:
   0.0000000   0.0000000   0.0000000         1    1
   0.0000000   0.0000000   0.5175141         2    1
   0.0000000   0.0000000  -0.5175141         2   -1
   0.0000000  -0.5000000   0.0000000         3    1
   0.0000000  -0.5000000   0.5175141         4    1
   0.0000000   0.5000000  -0.5175141         4   -1
  -0.5000000   0.0000000   0.0000000         3    5
   0.5000000   0.0000000   0.5175141         4   -5
  -0.5000000   0.0000000  -0.5175141         4    5
  -0.5000000  -0.5000000   0.0000000         5    1
  -0.5000000  -0.5000000   0.5175141         6    1
   0.5000000   0.5000000  -0.5175141         6   -1

     bravais-lattice index     =            6
     lattice parameter (alat)  =       8.6549  a.u.
     unit-cell volume          =     417.5895 (a.u.)^3
     number of atoms/cell      =            6
     number of atomic types    =            2
     number of electrons       =        48.00
     number of Kohn-Sham states=           25
     kinetic-energy cutoff     =      30.0000  Ry
     charge density cutoff     =     120.0000  Ry
     cutoff for Fock operator  =     120.0000  Ry
     convergence threshold     =      1.0E-06
     mixing beta               =       0.7000
     number of iterations used =            8  plain     mixing
     Exchange-correlation      = B3LYP ( 7 12  9  7 0 0)
     EXX-fraction              =        0.20

     celldm(1)=   8.654946  celldm(2)=   0.000000  celldm(3)=   0.644105
     celldm(4)=   0.000000  celldm(5)=   0.000000  celldm(6)=   0.000000

     crystal axes: (cart. coord. in units of alat)
               a(1) = (   1.000000   0.000000   0.000000 )
               a(2) = (   0.000000   1.000000   0.000000 )
               a(3) = (   0.000000   0.000000   0.644105 )

     reciprocal axes: (cart. coord. in units 2 pi/alat)
               b(1) = (  1.000000  0.000000  0.000000 )
               b(2) = (  0.000000  1.000000  0.000000 )
               b(3) = (  0.000000  0.000000  1.552542 )

     PseudoPot. # 1 for Ti read from file:
     ./Ti.pbe-sp-van_ak.UPF
     MD5 check sum: f98fea3e8887528921fefa5636a534ca
     Pseudo is Ultrasoft, Zval = 12.0
     Generated by new atomic code, or converted to UPF format
     Using radial grid of  851 points,  6 beta functions with:
                l(1) =   0
                l(2) =   0
                l(3) =   1
                l(4) =   1
                l(5) =   2
                l(6) =   2
     Q(r) pseudized with  8 coefficients,  rinner =    1.000   1.000   1.000
                                                       1.000   1.000

     PseudoPot. # 2 for O  read from file:
     ./O.pbe-van_ak.UPF
     MD5 check sum: 572909515f9aa9498032b6eb5528d5f9
     Pseudo is Ultrasoft, Zval =  6.0
     Generated by new atomic code, or converted to UPF format
     Using radial grid of  737 points,  4 beta functions with:
                l(1) =   0
                l(2) =   0
                l(3) =   1
                l(4) =   1
     Q(r) pseudized with  8 coefficients,  rinner =    0.800   0.800   0.800

     atomic species   valence    mass     pseudopotential
        Ti            12.00    47.86700     Ti( 1.00)
        O              6.00    15.99900     O ( 1.00)

     16 Sym. Ops., with inversion, found ( 8 have fractional translation)

   Cartesian axes

     site n.     atom                  positions (alat units)
         1           Ti  tau(   1) = (   0.0000000   0.0000000   0.0000000  )
         2           Ti  tau(   2) = (   0.5000000   0.5000000   0.3220524  )
         3           O   tau(   3) = (   0.3049370   0.3049370   0.0000000  )
         4           O   tau(   4) = (  -0.3049370  -0.3049370   0.0000000  )
         5           O   tau(   5) = (   0.8049370   0.1950630   0.3220524  )
         6           O   tau(   6) = (   0.1950630   0.8049370   0.3220524  )

     number of k points=     6
                       cart. coord. in units 2pi/alat
        k(    1) = (   0.0000000   0.0000000   0.0000000), wk =   0.1666667
        k(    2) = (   0.0000000   0.0000000   0.5175141), wk =   0.3333333
        k(    3) = (   0.0000000  -0.5000000   0.0000000), wk =   0.3333333
        k(    4) = (   0.0000000  -0.5000000   0.5175141), wk =   0.6666667
        k(    5) = (  -0.5000000  -0.5000000   0.0000000), wk =   0.1666667
        k(    6) = (  -0.5000000  -0.5000000   0.5175141), wk =   0.3333333

     Initial potential from superposition of free atoms

     starting charge   45.99991, renormalised to   48.00000
     Starting wfcs are   36 randomized atomic wfcs

     Self-consistent Calculation

     iteration #  1     ecut=    30.00 Ry     beta= 0.70
     Davidson diagonalization with overlap
     ethr =  1.00E-02,  avg # of iterations =  2.7

     total energy              =    -361.45451173 Ry
     Harris-Foulkes estimate   =    -362.63994377 Ry
     estimated scf accuracy    <       1.48299558 Ry

[...]

     End of self-consistent calculation

          k = 0.0000 0.0000 0.0000 (  1161 PWs)   bands (ev):

   -47.3888 -47.3716 -23.8656 -23.8656 -23.6942 -23.6942 -23.6530 -23.6163
    -8.7398  -7.5740  -6.8201  -6.8201   3.7515   4.1146   4.5403   5.6160
     5.6160   6.9396   6.9396   7.4989   8.7836   9.0410   9.0410   9.4823
    11.3697

[...]

          k =-0.5000-0.5000 0.0000 (  1148 PWs)   bands (ev):

[...]

     highest occupied, lowest unoccupied level (ev):     9.4823   11.3697

!    total energy              =    -362.34828190 Ry
     Harris-Foulkes estimate   =    -362.34828197 Ry
     estimated scf accuracy    <       0.00000009 Ry

     convergence has been achieved in  16 iterations

     Using ACE for calculation of exact exchange

     EXX: now go back to refine exchange calculation

[...]

     total energy              =    -361.89898156 Ry
     Harris-Foulkes estimate   =    -361.89898176 Ry
     est. exchange err (dexx)  =       0.00284437 Ry
     - averaged Fock potential =      20.76970474 Ry
     + Fock energy (ACE)       =     -10.39059256 Ry

[...]

     Threshold (ethr) on eigenvalues was too large:
     Diagonalizing with lowered threshold

     Davidson diagonalization with overlap
     ethr =  4.71E-09,  avg # of iterations =  2.8

[...]

     total energy              =    -361.89973399 Ry
     Harris-Foulkes estimate   =    -361.89973618 Ry
     estimated scf accuracy    <       0.00000482 Ry

[...]

     total energy              =    -361.89973639 Ry
     Harris-Foulkes estimate   =    -361.89973640 Ry
     est. exchange err (dexx)  =       0.00000148 Ry
     - averaged Fock potential =      20.79093140 Ry
     + Fock energy (ACE)       =     -10.39557036 Ry

     EXX: now go back to refine exchange calculation

     Self-consistent Calculation

     iteration #  1     ecut=    30.00 Ry     beta= 0.70
     Davidson diagonalization with overlap
     ethr =  5.10E-09,  avg # of iterations =  3.3

     Threshold (ethr) on eigenvalues was too large:
     Diagonalizing with lowered threshold

     Davidson diagonalization with overlap
     ethr =  3.40E-10,  avg # of iterations =  3.2

     End of self-consistent calculation

[...]

          k = 0.0000-0.5000 0.5175 (  1170 PWs)   bands (ev):

[...]

          k =-0.5000-0.5000 0.5175 (  1144 PWs)   bands (ev):

   -51.9436 -51.9436 -27.2075 -27.2075 -26.9950 -26.9950 -26.8935 -26.8935
    -9.7705  -9.7705  -9.6986  -9.6986   3.3153   3.3153   3.4247   3.4247
     4.8830   4.8830   6.0053   6.0054   6.8116   6.8117   7.3801   7.3801
    13.3244

     highest occupied, lowest unoccupied level (ev):     8.4732   12.1935

!    total energy              =    -361.89973692 Ry
     Harris-Foulkes estimate   =    -361.89973703 Ry
     estimated scf accuracy    <       0.00000014 Ry

     convergence has been achieved in   1 iterations

     Using ACE for calculation of exact exchange

!!   total energy              =    -361.89973718 Ry
     Harris-Foulkes estimate   =    -361.89973729 Ry
     est. exchange err (dexx)  =       0.00000026 Ry
     - averaged Fock potential =      20.79120777 Ry
     + Fock energy (ACE)       =     -10.39563768 Ry

     EXX self-consistency reached

     Writing output data file pwscf.save/

     General routines

     Parallel routines

     EXX routines

     EXX+US  routines

   This run was terminated on:  14:12:57  13Dec2021

   JOB DONE.